# Solution for model r10_t27_m4_6
# Finished Task: 26 / 27
# Makespan: 706.0, Total Distance: 1435.0, Total Time: 0.7911
# R O S F
0 0 19 0.0 0.0
1 1 20 0.0 0.0
2 2 24 0.0 0.0
3 3 13 0.0 0.0
4 4 17 0.0 0.0
5 5 14 0.0 0.0
6 6 27 0.0 0.0
7 7 36 0.0 0.0
8 8 22 0.0 0.0
9 9 15 0.0 0.0
10 6 23 546.0 571.0
11 8 -1 592.0 620.0
12 7 -1 496.0 521.0
13 3 21 314.0 342.0
14 5 26 83.0 105.0
15 9 -1 479.0 516.0
16 5 -1 577.0 610.0
17 4 25 265.0 287.0
18 -1 -1 -1.0 -1.0
19 0 31 362.0 385.0
20 1 33 456.0 480.0
21 3 -1 518.0 547.0
22 8 11 523.0 556.0
23 6 -1 610.0 635.0
24 2 35 303.0 329.0
25 4 30 532.0 567.0
26 5 16 356.0 395.0
27 6 32 441.0 477.0
28 2 29 597.0 620.0
29 2 -1 658.0 686.0
30 4 -1 608.0 630.0
31 0 34 551.0 577.0
32 6 10 495.0 517.0
33 1 -1 557.0 584.0
34 0 -1 681.0 706.0
35 2 28 457.0 479.0
36 7 12 451.0 480.0
